11
2147483647 68 86 94 58 73 24 10 29 4 10 
68 2147483647 16 17 60 90 95 13 83 89 78 
86 16 2147483647 59 68 4 64 22 17 29 72 
94 17 59 2147483647 13 22 78 87 85 8 69 
58 60 68 13 2147483647 36 74 87 47 94 79 
73 90 4 22 36 2147483647 50 3 35 61 91 
24 95 64 78 74 50 2147483647 41 62 19 92 
10 13 22 87 87 3 41 2147483647 97 17 94 
29 83 17 85 47 35 62 97 2147483647 15 45 
4 89 29 8 94 61 19 17 15 2147483647 41 
10 78 72 69 79 91 92 94 45 41 2147483647 
